
(set-logic ALL) 

(declare-datatype MyList ((Nil) (Cons (head Real) (tail MyList)) )) 
(declare-fun l0 () MyList) 
(declare-fun l1 () MyList) 
(declare-fun l2 () MyList) 
(declare-fun l3 () MyList) 
(declare-fun i0 () Real) 
(declare-fun i1 () Real) 
(assert (or (= l3 l3) (is-Cons l3) (= l3 Nil) (is-Cons Nil)) )
(assert (is-Nil Nil) )
(assert (and (= l1 l2) (is-Cons Nil) (= l3 Nil) (= l0 Nil)) )
(assert (is-Cons l0) )
(assert (is-Nil Nil) )
(assert (not (is-Nil Nil)) )
(assert (is-Cons Nil) )
(assert (and (is-Nil Nil) (= l2 l3)) )
(check-sat)
